swarm_exploration/utils/lkh_mtsp_solver/resource/amtsp2_2.atsp
NAME : amtsp
TYPE : ATSP
DIMENSION : 8
EDGE_WEIGHT_TYPE : EXPLICIT
EDGE_WEIGHT_FORMAT : FULL_MATRIX
EDGE_WEIGHT_SECTION
100000 -100000 100000 100000 100000 100000 100000 100000 
100000 100000 534 1675 2254 2942 2825 2942 
0 0 100000 499 2300 3050 3156 3450 
0 0 499 100000 500 2300 2455 2851 
0 0 2300 500 100000 500 702 2388 
0 0 3050 2300 500 100000 466 2200 
0 0 3156 2455 702 466 100000 466 
0 0 3450 2851 2388 2200 466 100000 
