swarm_exploration/utils/lkh_mtsp_solver/resource/amtsp2_2.tour
NAME : amtsp.-95900.tour
COMMENT : Length = -95900
COMMENT : Found by LKH [Keld Helsgaun] Tue May  2 13:45:05 2023
TYPE : TOUR
DIMENSION : 11
TOUR_SECTION
1
2
3
4
5
6
7
8
9
10
11
-1
EOF
